c   #vars: 72   #clauses: 338   #literals: 972
c 
p cnf 72 338
-1 -2 0
-3 -4 0
-5 -6 0
-7 -8 0
-11 39 58 59 0
3 4 66 67 0
-9 -10 0
-11 -12 0
18 37 38 -66 0
-14 -15 0
-16 -17 0
21 52 53 -60 0
-19 -20 0
26 -55 58 59 0
27 28 66 67 0
-22 -23 0
-24 -25 0
18 -37 66 67 0
40 41 64 65 0
33 -54 64 65 0
-27 -28 0
-29 -30 0
-31 -32 0
34 62 63 -66 0
39 50 51 -58 0
-35 -36 0
-37 -38 0
35 36 -37 56 0
1 2 -4 72 0
-40 -41 0
-42 -43 0
-44 -45 0
-46 -47 0
-48 -49 0
16 17 27 28 0
27 28 62 63 0
-50 -51 0
-52 -53 0
-54 -55 0
-4 24 25 72 0
29 30 -42 69 0
5 6 58 59 0
-58 -59 0
16 17 42 43 0
22 23 42 43 0
13 -26 70 71 0
-60 -61 0
-62 -63 0
-64 -65 0
-66 -67 0
3 4 -49 72 0
14 15 -44 68 0
1 2 60 61 0
-70 -71 0
16 17 -44 68 0
-14 29 30 57 0
13 -26 37 38 0
-1 -27 0
-2 -28 0
-1 -29 0
-2 -30 0
3 4 44 45 0
-1 -46 0
-2 -47 0
9 10 64 65 0
-1 -60 0
-2 -61 0
3 4 31 32 0
-1 -72 0
-14 16 17 68 0
16 17 70 71 0
-3 -29 0
-4 -30 0
24 25 35 36 0
-3 -31 0
-4 -32 0
9 10 48 49 0
-3 -44 0
-4 -45 0
-3 -66 0
-4 -67 0
-4 -68 0
16 17 31 32 0
-3 -72 0
-3 16 17 68 0
-2 24 25 72 0
-5 -31 0
-6 -32 0
11 12 44 45 0
-5 -35 0
-6 -36 0
-5 -40 0
-6 -41 0
46 47 58 59 0
-5 -46 0
-6 -47 0
13 26 -37 -55 0
-5 -52 0
-6 -53 0
19 20 54 55 0
29 30 -31 69 0
-6 -57 0
5 6 46 47 0
-5 -58 0
-6 -59 0
-5 -66 0
-6 -67 0
-7 34 62 63 0
-8 -33 0
5 6 40 41 0
-11 39 50 51 0
-8 -34 0
-3 14 15 68 0
-7 -54 0
-8 -55 0
16 17 58 59 0
-7 -62 0
-8 -63 0
22 23 54 55 0
3 4 -14 68 0
-9 -27 0
-10 -28 0
-9 -29 0
-10 -30 0
-9 -37 0
-10 -38 0
-9 -48 0
-10 -49 0
42 43 64 65 0
-9 -64 0
-10 -65 0
13 37 38 -70 0
-7 33 54 55 0
21 -52 60 61 0
1 2 -49 72 0
33 54 55 -64 0
14 15 40 41 0
-14 35 36 56 0
-12 -39 0
3 4 -25 72 0
-25 48 49 72 0
-11 -44 0
-12 -45 0
-11 -46 0
-12 -47 0
18 37 38 -60 0
-7 33 64 65 0
7 8 54 55 0
18 60 61 -66 0
-13 -38 0
24 25 40 41 0
18 -37 60 61 0
-13 -71 0
1 2 27 28 0
-14 -40 0
-15 -41 0
-14 -54 0
-15 -55 0
-5 29 30 57 0
-16 44 45 68 0
-15 -56 0
31 32 -42 69 0
-15 -57 0
46 47 70 71 0
-15 -68 0
19 20 70 71 0
-16 -27 0
-17 -28 0
-16 -31 0
-17 -32 0
19 20 50 51 0
-16 -42 0
-17 -43 0
5 6 31 32 0
-16 -58 0
-17 -59 0
48 49 70 71 0
-17 -68 0
13 -37 70 71 0
-16 -70 0
-17 -71 0
21 -48 52 53 0
-18 -38 0
21 48 49 -60 0
-18 -61 0
14 15 54 55 0
21 48 49 -52 0
-18 -67 0
22 23 44 45 0
-19 -29 0
-20 -30 0
22 23 35 36 0
-19 -40 0
-20 -41 0
48 49 52 53 0
-19 -50 0
-20 -51 0
22 23 31 32 0
-19 -54 0
-20 -55 0
-19 -58 0
-20 -59 0
9 10 27 28 0
-19 -70 0
-20 -71 0
-13 26 58 59 0
-21 -49 0
5 6 66 67 0
26 54 55 -59 0
-21 -53 0
24 25 62 63 0
-13 26 54 55 0
-21 -61 0
-14 37 38 56 0
18 -60 66 67 0
-22 -31 0
-23 -32 0
-22 -35 0
-23 -36 0
19 20 29 30 0
-22 -42 0
-23 -43 0
13 26 -55 -70 0
-22 -44 0
-23 -45 0
3 4 29 30 0
-22 -54 0
-23 -55 0
14 15 -29 57 0
14 15 -16 68 0
-24 -35 0
-25 -36 0
9 10 29 30 0
-24 -40 0
-25 -41 0
-24 -52 0
-25 -53 0
-24 -62 0
-25 -63 0
5 6 35 36 0
-24 -72 0
3 4 -44 68 0
-26 -54 0
7 8 33 -64 0
7 8 62 63 0
-26 -58 0
7 8 33 -54 0
34 -62 66 67 0
-27 -60 0
-28 -61 0
-27 -62 0
-28 -63 0
-27 -66 0
-28 -67 0
9 10 37 38 0
-29 31 32 69 0
-30 -57 0
-30 -69 0
11 12 -58 -59 0
-3 44 45 68 0
-32 -69 0
21 -48 60 61 0
7 8 34 -66 0
-33 -55 0
1 2 46 47 0
7 8 34 -62 0
-33 -65 0
13 26 -37 -59 0
11 12 39 -58 0
-34 -63 0
5 6 52 53 0
11 12 39 -50 0
-34 -67 0
-35 -50 0
-36 -51 0
-14 44 45 68 0
24 25 -49 72 0
-36 -56 0
1 2 29 30 0
1 2 -25 72 0
-38 -56 0
-2 3 4 72 0
-37 -60 0
-38 -61 0
19 20 40 41 0
-37 -66 0
-38 -67 0
-31 42 43 69 0
14 15 -37 56 0
-39 -51 0
42 43 50 51 0
14 15 -35 56 0
-39 -59 0
37 38 60 61 0
-2 48 49 72 0
-5 14 15 57 0
11 12 46 47 0
-4 48 49 72 0
13 26 -59 -70 0
-29 42 43 69 0
46 47 62 63 0
-11 -12 58 59 0
-40 -64 0
-41 -65 0
24 25 52 53 0
-42 -50 0
-43 -51 0
-42 -64 0
-43 -65 0
39 -50 58 59 0
-43 -69 0
27 28 60 61 0
-44 -50 0
-45 -51 0
46 47 64 65 0
-45 -68 0
19 20 58 59 0
-46 -58 0
-47 -59 0
37 38 66 67 0
-46 -62 0
-47 -63 0
-46 -64 0
-47 -65 0
-46 -70 0
-47 -71 0
44 45 50 51 0
-48 -52 0
-49 -53 0
35 36 50 51 0
-48 -70 0
-49 -71 0
-35 37 38 56 0
-48 -72 0
3 4 -16 68 0
5 6 -14 57 0
-7 34 66 67 0
5 6 -29 57 0
